db/data/30662299792690179851705188171711520787.z3.out
sat
-------------------
111.458453445
